(set-info :smt-lib-version 2.6)
(set-logic QF_AUFLIA)
(set-info :source |Generator: Rodin SMT Plug-in|)
(set-info :license "https://creativecommons.org/licenses/by-nc/4.0/")
(set-info :category "industrial")
(set-info :status unsat)

(declare-fun circuit () Bool)
(declare-fun flash () Int)
(declare-fun nf () Int)
(declare-fun nf0 () Int)

(assert (! (<= 0 nf0)
         :named hyp1))
(assert (! (<= 0 nf)
         :named hyp2))
(assert (! (<= nf nf0)
         :named hyp3))
(assert (! (<= nf0 (+ nf 1))
         :named hyp4))
(assert (! (<= 0 flash)
         :named hyp5))
(assert (! (<= flash nf0)
         :named hyp6))
(assert (! (<= nf0 (+ flash 1))
         :named hyp7))
(assert (! (not 
               circuit)
         :named hyp8))
(assert (! (not 
               (= nf nf0))
         :named hyp9))
(assert (! (or 
               (= flash nf0) 
               (= flash nf))
         :named hyp10))
(assert (! (not 
               (<= (+ nf 1) nf0))
         :named goal))
(check-sat)
(exit)

